Solver command line: ['/usr/local/bin/gurobi.sh']

Set parameter WLSAccessID
Set parameter WLSSecret
Set parameter LicenseID to value 2606900
Academic license 2606900 - for non-commercial use only - registered to so___@htwk-leipzig.de
Read LP format model from file /var/folders/jf/5sh4zzv94dxbcz8g7tg2jq5h0000gn/T/tmp5cx6wn2d.pyomo.lp
Reading time = 2.12 seconds
objective: 970608 rows, 878399 columns, 2173998 nonzeros
Set parameter MIPGap to value 0.02
Gurobi Optimizer version 12.0.1 build v12.0.1rc0 (mac64[rosetta2] - Darwin 24.4.0 24E263)

CPU model: Apple M3
Thread count: 8 physical cores, 8 logical processors, using up to 8 threads

Non-default parameters:
MIPGap  0.02

Academic license 2606900 - for non-commercial use only - registered to so___@htwk-leipzig.de
Optimize a model with 970608 rows, 878399 columns and 2173998 nonzeros
Model fingerprint: 0xb51dd70a
Model has 8783 quadratic constraints
Variable types: 755424 continuous, 122975 integer (105408 binary)
Coefficient statistics:
  Matrix range     [6e-03, 2e+02]
  QMatrix range    [1e+00, 1e+00]
  Objective range  [1e-02, 4e+02]
  Bounds range     [1e+00, 3e+00]
  RHS range        [8e-05, 1e+04]
Presolve removed 776470 rows and 657904 columns
Presolve time: 0.44s
Presolved: 194138 rows, 220495 columns, 614221 nonzeros
Variable types: 145809 continuous, 74686 integer (65902 binary)
Performing another presolve...
Presolve removed 70271 rows and 70271 columns
Presolve time: 4.96s
Deterministic concurrent LP optimizer: primal and dual simplex
Showing primal log only...


Root simplex log...

Iteration    Objective       Primal Inf.    Dual Inf.      Time
       0    2.6514459e+07   6.642602e+06   7.986642e+13      6s
Concurrent spin time: 0.15s

Solved with dual simplex

Root simplex log...

Iteration    Objective       Primal Inf.    Dual Inf.      Time
   62810    1.2828805e+07   0.000000e+00   0.000000e+00      9s

Root relaxation: objective 1.282881e+07, 62810 iterations, 2.96 seconds (4.86 work units)
Total elapsed time = 9.09s (DegenMoves)

    Nodes    |    Current Node    |     Objective Bounds      |     Work
 Expl Unexpl |  Obj  Depth IntInf | Incumbent    BestBd   Gap | It/Node Time

     0     0 1.2829e+07    0  429          - 1.2829e+07      -     -   10s
H    0     0                    1.309771e+07 1.2829e+07  2.05%     -   12s
H    0     0                    1.307012e+07 1.2829e+07  1.85%     -   14s

Explored 1 nodes (68249 simplex iterations) in 15.07 seconds (25.90 work units)
Thread count was 8 (of 8 available processors)

Solution count 2: 1.30701e+07 1.30977e+07 

Optimal solution found (tolerance 2.00e-02)
Best objective 1.307012377059e+07, best bound 1.282880500630e+07, gap 1.8463%

